l=31816;
a=5;
setup_costs=[|12,17,20,10,18,
|17,3,22,7,12,
|20,22,9,16,7,
|10,7,16,10,17,
|18,12,7,17,21,
|0,0,0,0,0,|];
setup_times=[|3,5,8,7,3,
|5,12,20,6,4,
|8,20,2,21,23,
|7,6,21,16,23,
|3,4,23,23,22,
|0,0,0,0,0,|];
m=2;
min_cap=[0, 0];
max_cap=[26, 23];

initState=[4, 3];
s=2;
m_a_s = [|11253,23792,
|7642,16538|];
m_a_e = [|15972,27276,
|9956,31036|];
n=100;
eligible_machine =[{2}, {1}, {2}, {1}, {1, 2}, {2}, {1}, {2}, {1, 2}, {2}, {1}, {2}, {1}, {2}, {2}, {1, 2}, {2}, {1}, {2}, {1}, {2}, {1, 2}, {1}, {1}, {1, 2}, {1, 2}, {1}, {1, 2}, {2}, {2}, {1}, {2}, {2}, {1}, {2}, {1}, {1}, {2}, {1}, {1, 2}, {2}, {2}, {1}, {1, 2}, {2}, {1}, {2}, {1, 2}, {2}, {2}, {1}, {2}, {2}, {2}, {1}, {1, 2}, {2}, {2}, {1}, {1}, {2}, {2}, {1}, {1}, {1}, {2}, {1}, {1}, {1, 2}, {1}, {1}, {1, 2}, {2}, {1}, {1}, {1, 2}, {1}, {1}, {1}, {1}, {1, 2}, {2}, {1}, {1, 2}, {2}, {1}, {1}, {2}, {1}, {2}, {1}, {2}, {1, 2}, {1}, {2}, {2}, {1}, {1}, {2}, {1, 2}];
earliest_start=[10, 350, 255, 135, 136, 380, 316, 116, 187, 424, 343, 101, 231, 46, 387, 208, 9, 410, 278, 66, 359, 362, 437, 250, 162, 65, 241, 90, 400, 302, 79, 124, 474, 399, 105, 483, 95, 492, 426, 30, 471, 181, 532, 187, 288, 362, 357, 142, 396, 32, 273, 427, 135, 180, 318, 446, 531, 312, 75, 309, 247, 266, 233, 503, 540, 129, 23, 527, 389, 473, 178, 138, 269, 25, 217, 233, 527, 132, 33, 64, 450, 344, 14, 79, 222, 249, 60, 73, 374, 511, 306, 290, 479, 526, 433, 171, 307, 174, 289, 46];
latest_end=[81, 737, 266, 457, 157, 696, 377, 132, 235, 581, 786, 172, 545, 336, 409, 366, 390, 460, 490, 240, 386, 624, 779, 285, 365, 255, 395, 130, 739, 357, 364, 149, 812, 456, 212, 549, 444, 762, 639, 130, 744, 292, 579, 277, 387, 458, 597, 377, 536, 36, 306, 720, 178, 287, 500, 756, 799, 328, 273, 480, 570, 583, 487, 726, 737, 385, 89, 563, 502, 673, 249, 386, 421, 279, 378, 559, 638, 474, 144, 419, 581, 426, 98, 351, 695, 381, 224, 113, 475, 595, 335, 435, 588, 881, 624, 261, 447, 236, 352, 278];
min_time=[26, 92, 3, 83, 16, 91, 14, 13, 17, 75, 90, 54, 72, 97, 14, 56, 77, 25, 45, 72, 14, 83, 82, 14, 49, 74, 36, 29, 95, 40, 61, 12, 73, 17, 30, 14, 90, 62, 60, 84, 68, 82, 32, 42, 68, 91, 53, 82, 95, 2, 8, 69, 18, 33, 100, 65, 82, 6, 78, 84, 92, 94, 77, 78, 71, 73, 48, 19, 66, 58, 27, 57, 37, 77, 52, 66, 83, 76, 34, 79, 32, 41, 63, 96, 98, 33, 90, 17, 23, 17, 27, 36, 36, 73, 66, 84, 33, 62, 49, 70];
max_time=[100, 100, 100, 100, 100, 100, 100, 100, 100, 100, 100, 100, 100, 100, 100, 100, 100, 100, 100, 100, 100, 100, 100, 100, 100, 100, 100, 100, 100, 100, 100, 100, 100, 100, 100, 100, 100, 100, 100, 100, 100, 100, 100, 100, 100, 100, 100, 100, 100, 100, 100, 100, 100, 100, 100, 100, 100, 100, 100, 100, 100, 100, 100, 100, 100, 100, 100, 100, 100, 100, 100, 100, 100, 100, 100, 100, 100, 100, 100, 100, 100, 100, 100, 100, 100, 100, 100, 100, 100, 100, 100, 100, 100, 100, 100, 100, 100, 100, 100, 100];
size=[8, 16, 5, 19, 7, 18, 4, 8, 14, 15, 19, 13, 7, 9, 13, 12, 9, 11, 19, 3, 7, 5, 9, 6, 10, 15, 13, 12, 7, 12, 14, 13, 13, 12, 6, 6, 20, 6, 11, 15, 20, 7, 3, 12, 6, 11, 9, 3, 15, 15, 7, 17, 17, 19, 10, 15, 16, 11, 20, 15, 17, 11, 12, 5, 7, 7, 5, 11, 18, 14, 2, 6, 2, 9, 10, 17, 11, 5, 8, 15, 16, 6, 19, 5, 6, 1, 3, 10, 3, 13, 9, 12, 20, 2, 13, 16, 1, 16, 15, 14];
attribute=[2, 5, 2, 4, 1, 2, 3, 3, 4, 1, 4, 4, 2, 2, 1, 2, 2, 3, 2, 4, 4, 2, 5, 5, 2, 5, 4, 5, 3, 3, 1, 4, 4, 1, 5, 1, 5, 2, 4, 3, 3, 1, 2, 5, 3, 1, 3, 5, 1, 4, 4, 3, 2, 1, 2, 4, 3, 5, 2, 4, 3, 5, 3, 5, 3, 2, 1, 1, 3, 1, 2, 5, 5, 4, 1, 4, 2, 3, 4, 2, 2, 1, 1, 4, 2, 1, 1, 4, 3, 1, 3, 2, 3, 5, 4, 5, 3, 3, 3, 1];

upper_bound_integer_objective=7084000;
mult_factor_total_runtime=506;
mult_factor_finished_toolate=28336;
mult_factor_total_setuptimes=0;
mult_factor_total_setupcosts=644;
running_time_bound=5519;
min_duration=2;
max_duration=100;
max_setup_time=23;
max_setup_cost=22;